p cnf 32 38
1 2 0
-2 -1 0
3 0
4 5 0
-5 -4 0
6 0
7 8 0
-8 -7 0
9 0
11 0
-10 0
12 13 0
-13 -12 0
14 15 0
-15 -14 0
-14 -13 0
-15 -12 16 0
-14 -12 17 0
-15 -13 18 0
19 20 0
-20 -19 0
21 22 0
-22 -21 0
-21 -20 0
-22 -19 23 0
-21 -19 24 0
-22 -20 25 0
27 0
29 0
-28 0
32 0
-13 -7 -4 0
-12 -5 0
-12 -8 0
-26 0
-19 -7 0
-20 -8 -1 0
-19 -2 0
w 10 0.526798
w -10 0.473202
w 5 0.526798
w -5 0.473202
w 16 0.526798
w -16 0.473202
w 30 0.526798
w -30 0.473202
w 15 0.526798
w -15 0.473202
w 27 0.526798
w -27 0.473202
w 26 0.526798
w -26 0.473202
w 23 0.526798
w -23 0.473202
w 24 0.526798
w -24 0.473202
w 21 0.526798
w -21 0.473202
w 3 0.526798
w -3 0.473202
w 32 0.526798
w -32 0.473202
w 9 0.526798
w -9 0.473202
w 20 0.526798
w -20 0.473202
w 17 0.526798
w -17 0.473202
w 25 1
w -25 1
w 14 1
w -14 1
w 1 1
w -1 1
w 13 1
w -13 1
w 7 1
w -7 1
w 11 1
w -11 1
w 12 1
w -12 1
w 29 1
w -29 1
w 2 1
w -2 1
w 6 1
w -6 1
w 22 1
w -22 1
w 31 1
w -31 1
w 8 1
w -8 1
w 4 1
w -4 1
w 19 1
w -19 1
w 18 1
w -18 1
w 28 1
w -28 1
